WARNING: for repeatability, setting FPU to use double precision
============================[ Problem Statistics ]=============================
|                                                                             |
|  Number of variables:            50                                         |
|  Number of clauses:             218                                         |
|  Parse time:                   0.00 s                                       |
|                                                                             |
============================[ Search Statistics ]==============================
| Conflicts |          ORIGINAL         |          LEARNT          | Progress |
|           |    Vars  Clauses Literals |    Limit  Clauses Lit/Cl |          |
===============================================================================
===============================================================================
restarts              : 1
conflicts             : 52             (60046 /sec)
decisions             : 69             (0.00 % random) (79677 /sec)
propagations          : 764            (882217 /sec)
conflict literals     : 214            (16.41 % deleted)
Memory used           : 20.00 MB
CPU time              : 0.000866 s

SATISFIABLE
